
Gurobi 7.0.2 (linux64, Python) logging started Mon May 20 11:35:59 2019


Gurobi 7.0.2 (linux64, Python) logging started Mon May 20 11:36:48 2019


Gurobi 7.0.2 (linux64) logging started Mon May 20 11:43:30 2019


Gurobi Optimizer version 7.0.2 build v7.0.2rc1 (linux64)
Copyright (c) 2017, Gurobi Optimization, Inc.


ERROR 10003: Unable to open file 'GRB_LICENSE_FILE' for input


Gurobi 7.0.2 (linux64) logging started Mon May 20 11:43:45 2019


Gurobi Optimizer version 7.0.2 build v7.0.2rc1 (linux64)
Copyright (c) 2017, Gurobi Optimization, Inc.


ERROR 10003: Unable to open file 'GRB_LICENSE_FILE' for input


Gurobi 7.0.2 (linux64, Python) logging started Mon May 20 11:44:27 2019


Gurobi 7.0.2 (linux64, Python) logging started Mon May 20 11:45:51 2019


Gurobi 7.0.2 (linux64, Python) logging started Mon May 20 11:51:23 2019


Gurobi 7.0.2 (linux64, Python) logging started Mon May 20 11:51:56 2019

